# Solution for model GasLib-40
# Objective value = 2.2776312992589840e+01
loadshed[innode_1] 0
loadshed[innode_2] 0
loadshed[innode_3] 0
loadshed[innode_4] 0
loadshed[innode_5] 0
loadshed[innode_6] 0
loadshed[innode_7] 0
loadshed[innode_8] 0
loadshed[source_1] -1.6231014684961154e-01
loadshed[source_2] 3.2606986793415338e-03
loadshed[source_3] 3.0312100850112333e-01
loadshed[sink_1] 0
loadshed[sink_2] 0
loadshed[sink_3] 0
loadshed[sink_4] 0
loadshed[sink_5] 0
loadshed[sink_6] 0
loadshed[sink_7] 0
loadshed[sink_8] 0
loadshed[sink_9] 0
loadshed[sink_10] 0
loadshed[sink_11] 0
loadshed[sink_12] 1
loadshed[sink_13] 0
loadshed[sink_14] 0
loadshed[sink_15] 0
loadshed[sink_16] 0
loadshed[sink_17] 0
loadshed[sink_18] 0
loadshed[sink_19] 0
loadshed[sink_20] 0
loadshed[sink_21] 3.9269174986536592e-01
loadshed[sink_22] 0
loadshed[sink_23] 0
loadshed[sink_24] 0
loadshed[sink_25] 0
loadshed[sink_26] 0
loadshed[sink_27] 0
loadshed[sink_28] 0
loadshed[sink_29] 0
flow[source_1,sink_3] 1.8374993397938476e+02
flow[innode_1,sink_16] 1.6354166666666970e+01
flow[innode_6,sink_13] 4.3093733231122968e+00
flow[sink_13,sink_14] -1.2044793343554371e+01
flow[sink_14,sink_10] -2.8398960010221039e+01
flow[sink_25,sink_26] 1.5599691067265550e+02
flow[sink_26,sink_9] 8.1770833333333655e+01
flow[sink_9,sink_18] 6.5416666666666671e+01
flow[sink_26,sink_4] 5.7871910672655190e+01
flow[sink_4,sink_20] -33.8309430014217
flow[sink_18,sink_6] 4.9062500000000313e+01
flow[sink_25,innode_8] -1.5104160064604838e+02
flow[sink_6,sink_7] 0
flow[sink_6,sink_22] 3.2708333333333641e+01
flow[sink_7,sink_24] 2.6286187007410156e+01
flow[sink_22,sink_1] 1.6354166666666970e+01
flow[sink_24,sink_21] 9.9320203407434953e+00
flow[sink_21,sink_12] 0
flow[sink_7,sink_5] -4.2640353674076827e+01
flow[sink_5,sink_17] -5.8994520340743492e+01
flow[sink_17,sink_4] -7.5348687007410163e+01
flow[sink_17,sink_8] 0
flow[sink_3,sink_23] 16.3541666666697
flow[sink_8,sink_20] -1.6354166666668334e+01
flow[sink_25,sink_20] 6.6539276334756693e+01
flow[sink_25,sink_15] -9.2158126351143153e+01
flow[sink_15,sink_29] -6.0754994993724445e+01
flow[sink_29,sink_28] 1.6354166666667879e+01
flow[sink_29,sink_2] 6.4111464690752044e+01
flow[sink_2,sink_15] 4.7757298024085372e+01
flow[sink_29,innode_7] -1.5757479301781103e+02
flow[innode_4,sink_19] 0
flow[sink_19,innode_3] 3.7800865520343187e+01
flow[innode_4,innode_5] 1.1016979334355504e+02
flow[sink_27,innode_5] -1.1016979334355504e+02
flow[sink_27,sink_19] 9.3815626676888371e+01
flow[sink_10,sink_11] 3.2708333333333641e+01
flow[sink_10,innode_2] -3.9660594489878157e+01
flow[sink_10,innode_3] -3.7800865520343187e+01
flow[innode_6,sink_25] -4.3093733231122968e+00
flow[sink_11,innode_1] 1.6354166666666970e+01
flow[sink_19,innode_2] 3.9660594489878157e+01
flow[source_3,innode_4] 1.1016979334355504e+02
flow[source_2,innode_7] 1.5757479301781103e+02
flow[sink_3,innode_8] 1.5104160064604838e+02
pressure[innode_1] 7.5761080017624082e+01
pressure[innode_2] 7.8009007547637708e+01
pressure[innode_3] 7.7925301811426579e+01
pressure[innode_4] 81.01325
pressure[innode_5] 8.0937469406867109e+01
pressure[innode_6] 7.4571752064319568e+01
pressure[innode_7] 81.01325
pressure[innode_8] 8.0399044165725982e+01
pressure[source_1] 81.01325
pressure[source_2] 81.01325
pressure[source_3] 81.01325
pressure[sink_1] 5.2912623423992656e+01
pressure[sink_2] 7.5174725830522846e+01
pressure[sink_3] 8.0399044165725982e+01
pressure[sink_4] 5.6226996755437064e+01
pressure[sink_5] 4.8952753051884670e+01
pressure[sink_6] 5.5013701034380034e+01
pressure[sink_7] 3.1218963406894403e+01
pressure[sink_8] 5.7569336615732723e+01
pressure[sink_9] 5.8690785837838320e+01
pressure[sink_10] 7.5912781325227627e+01
pressure[sink_11] 7.5761080017624082e+01
pressure[sink_12] 1.0132500000000071e+00
pressure[sink_13] 7.4547995209352436e+01
pressure[sink_14] 7.4569550393030255e+01
pressure[sink_15] 7.5018808778013153e+01
pressure[sink_16] 74.7394301828064
pressure[sink_17] 5.3347418392629180e+01
pressure[sink_18] 5.6323815862639663e+01
pressure[sink_19] 7.8009007547637708e+01
pressure[sink_20] 5.8708992039321011e+01
pressure[sink_21] 1.0132500000000071e+00
pressure[sink_22] 5.3976392566347670e+01
pressure[sink_23] 80.2343261540662
pressure[sink_24] 1.1232378973262982e+00
pressure[sink_25] 7.4571752064319568e+01
pressure[sink_26] 6.3584981257549671e+01
pressure[sink_27] 8.0023263694004825e+01
pressure[sink_28] 76.5034593116988
pressure[sink_29] 76.798741585316
interdiction[source_1,sink_3] 0
interdiction[innode_1,sink_16] 0
interdiction[innode_6,sink_13] 0
interdiction[sink_13,sink_14] 0
interdiction[sink_14,sink_10] 0
interdiction[sink_25,sink_26] 0
interdiction[sink_26,sink_9] 0
interdiction[sink_9,sink_18] 0
interdiction[sink_26,sink_4] 0
interdiction[sink_4,sink_20] 0
interdiction[sink_18,sink_6] 0
interdiction[sink_25,innode_8] 0
interdiction[sink_6,sink_7] 1
interdiction[sink_6,sink_22] 0
interdiction[sink_7,sink_24] 0
interdiction[sink_22,sink_1] 0
interdiction[sink_24,sink_21] 0
interdiction[sink_21,sink_12] 0
interdiction[sink_7,sink_5] 0
interdiction[sink_5,sink_17] 0
interdiction[sink_17,sink_4] 0
interdiction[sink_17,sink_8] 1
interdiction[sink_3,sink_23] 0
interdiction[sink_8,sink_20] 0
interdiction[sink_25,sink_20] 0
interdiction[sink_25,sink_15] 0
interdiction[sink_15,sink_29] 0
interdiction[sink_29,sink_28] 0
interdiction[sink_29,sink_2] 0
interdiction[sink_2,sink_15] 0
interdiction[sink_29,innode_7] 0
interdiction[innode_4,sink_19] 1
interdiction[sink_19,innode_3] 0
interdiction[innode_4,innode_5] 0
interdiction[sink_27,innode_5] 0
interdiction[sink_27,sink_19] 0
interdiction[sink_10,sink_11] 0
interdiction[sink_10,innode_2] 0
interdiction[sink_10,innode_3] 0
interdiction[innode_6,sink_25] 0
interdiction[sink_11,innode_1] 0
interdiction[sink_19,innode_2] 0
interdiction[source_3,innode_4] 0
interdiction[source_2,innode_7] 0
interdiction[sink_3,innode_8] 0
WCcheckFlow[source_1,sink_3] 39
WCcheckFlow[innode_1,sink_16] 1
WCcheckFlow[innode_6,sink_13] 13
WCcheckFlow[sink_13,sink_14] 12
WCcheckFlow[sink_14,sink_10] 11
WCcheckFlow[sink_25,sink_26] 15
WCcheckFlow[sink_26,sink_9] 5
WCcheckFlow[sink_9,sink_18] 4
WCcheckFlow[sink_26,sink_4] 9
WCcheckFlow[sink_4,sink_20] 2
WCcheckFlow[sink_18,sink_6] 3
WCcheckFlow[sink_25,innode_8] -36
WCcheckFlow[sink_6,sink_7] 0
WCcheckFlow[sink_6,sink_22] 2
WCcheckFlow[sink_7,sink_24] 3
WCcheckFlow[sink_22,sink_1] 1
WCcheckFlow[sink_24,sink_21] 2
WCcheckFlow[sink_21,sink_12] 1
WCcheckFlow[sink_7,sink_5] -4
WCcheckFlow[sink_5,sink_17] -5
WCcheckFlow[sink_17,sink_4] -6
WCcheckFlow[sink_17,sink_8] 0
WCcheckFlow[sink_3,sink_23] 1
WCcheckFlow[sink_8,sink_20] -1
WCcheckFlow[sink_25,sink_20] 0
WCcheckFlow[sink_25,sink_15] 6
WCcheckFlow[sink_15,sink_29] 5
WCcheckFlow[sink_29,sink_28] 1
WCcheckFlow[sink_29,sink_2] 1
WCcheckFlow[sink_2,sink_15] 0
WCcheckFlow[sink_29,innode_7] 2
WCcheckFlow[innode_4,sink_19] 0
WCcheckFlow[sink_19,innode_3] -5
WCcheckFlow[innode_4,innode_5] -2
WCcheckFlow[sink_27,innode_5] 3
WCcheckFlow[sink_27,sink_19] -4
WCcheckFlow[sink_10,sink_11] 3
WCcheckFlow[sink_10,innode_2] 1
WCcheckFlow[sink_10,innode_3] 6
WCcheckFlow[innode_6,sink_25] -14
WCcheckFlow[sink_11,innode_1] 2
WCcheckFlow[sink_19,innode_2] 0
WCcheckFlow[source_3,innode_4] -1
WCcheckFlow[source_2,innode_7] -1
WCcheckFlow[sink_3,innode_8] 37
